c instance by G2
c solution = 10001100110110111
c Known solution cost is 926 
p cnf 17 30
w 86 88 52 83 46 38 34 58 50 12 97 57 27 91 65 42 0
-9 2 -8 0
-3 10 -7 0
-3 -16 -7 0
5 7 -4 0
-5 7 -3 0
-2 -6 -14 0
12 3 -1 0
-6 10 -12 0
3 -8 2 0
2 5 7 0
-6 15 11 0
7 -9 -11 0
-2 -13 4 0
-7 -13 4 0
-6 -2 -3 0
-15 -3 2 0
1 -5 8 0
-13 4 -14 0
4 -7 13 0
-17 11 9 0
-1 13 -16 0
2 -1 -3 0
16 -13 -17 0
-12 15 4 0
-3 -14 15 0
7 10 -4 0
8 -17 -4 0
7 13 -12 0
6 -10 11 0
-15 -13 17 0
